(set-logic HORN)
(declare-fun assign_123_20_5_abs0 (Int Int Int Int Int Int Int) Bool)
(declare-fun assert_114_19_5_abs0 (Int Int Int Int Int Int Int) Bool)
(declare-fun assign_100_18_5_abs0 (Int Int Int Int Int Int Int) Bool)
(declare-fun while_126_17_1_abs0 (Int Int Int Int Int Int Int) Bool)
(declare-fun assign_82_16_1_abs0 (Int Int Int Int Int Int Int) Bool)
(declare-fun assign_73_13_4_abs0 (Int Int Int Int Int Int Int) Bool)
(declare-fun arrayassign_64_12_4_abs0 (Int Int Int Int Int Int Int) Bool)
(declare-fun while_76_11_1_abs0 (Int Int Int Int Int Int Int) Bool)
(declare-fun assign_46_10_1_abs0 (Int Int Int Int Int Int Int) Bool)
(declare-fun assign_40_9_1_abs0 (Int Int Int Int Int Int Int) Bool)
(declare-fun end_abs0 (Int Int Int Int Int Int Int) Bool)
(declare-fun start_abs0 (Int Int Int Int Int Int Int) Bool)
(assert (forall ((u Int) (c Int) (tmp Int) (size Int) (i Int) (vabs_f_f Int) (a_select Int)) (start_abs0 vabs_f_f a_select u c tmp size i)))
(assert (forall ((i Int) (size Int) (tmp Int) (c Int) (u Int) (vabs_0_f_f Int) (a_select Int)) (=> (start_abs0 vabs_0_f_f a_select u c tmp size i) (assign_40_9_1_abs0 vabs_0_f_f a_select u c tmp size i))))
(assert (forall ((rnd Int) (i Int) (size Int) (tmp Int) (c Int) (u Int) (vabs_0_f_f Int) (a_select Int)) (=> (assign_40_9_1_abs0 vabs_0_f_f a_select u c tmp size i) (assign_46_10_1_abs0 vabs_0_f_f a_select u c tmp rnd i))))
(assert (forall ((i Int) (size Int) (tmp Int) (c Int) (u Int) (vabs_0_f_f Int) (a_select Int)) (=> (assign_46_10_1_abs0 vabs_0_f_f a_select u c tmp size i) (while_76_11_1_abs0 vabs_0_f_f a_select u c tmp size 0))))
(assert (forall ((u Int) (c Int) (tmp Int) (size Int) (i Int) (vabs_0_f_f Int) (a_select Int)) (=> (and (while_76_11_1_abs0 vabs_0_f_f a_select u c tmp size i) (< i size)) (arrayassign_64_12_4_abs0 vabs_0_f_f a_select u c tmp size i))))
(assert (forall ((u Int) (c Int) (tmp Int) (size Int) (i Int) (vabs_0_f_f Int) (a_select Int)) (=> (and (while_76_11_1_abs0 vabs_0_f_f a_select u c tmp size i) (not (< i size))) (assign_82_16_1_abs0 vabs_0_f_f a_select u c tmp size i))))
(assert (forall ((i Int) (size Int) (tmp Int) (c Int) (u Int) (vabs_0_f_f Int) (a_select Int)) (=> (arrayassign_64_12_4_abs0 vabs_0_f_f a_select u c tmp size i) (assign_73_13_4_abs0 vabs_0_f_f (ite (= i vabs_0_f_f) 1 a_select) u c tmp size i))))
(assert (forall ((i Int) (size Int) (tmp Int) (c Int) (u Int) (vabs_0_f_f Int) (a_select Int)) (=> (assign_73_13_4_abs0 vabs_0_f_f a_select u c tmp size i) (while_76_11_1_abs0 vabs_0_f_f a_select u c tmp size (+ i 2)))))
(assert (forall ((i Int) (size Int) (tmp Int) (c Int) (u Int) (vabs_0_f_f Int) (a_select Int)) (=> (assign_82_16_1_abs0 vabs_0_f_f a_select u c tmp size i) (while_126_17_1_abs0 vabs_0_f_f a_select u c tmp size 1))))
(assert (forall ((u Int) (c Int) (tmp Int) (size Int) (i Int) (vabs_0_f_f Int) (a_select Int)) (=> (and (while_126_17_1_abs0 vabs_0_f_f a_select u c tmp size i) (< i size)) (assign_100_18_5_abs0 vabs_0_f_f a_select u c tmp size i))))
(assert (forall ((u Int) (c Int) (tmp Int) (size Int) (i Int) (vabs_0_f_f Int) (a_select Int)) (=> (and (while_126_17_1_abs0 vabs_0_f_f a_select u c tmp size i) (not (< i size))) (end_abs0 vabs_0_f_f a_select u c tmp size i))))
(assert (forall ((i Int) (size Int) (tmp Int) (c Int) (u Int) (vabs_0_f_f Int) (a_select_0 Int) (a_select Int)) (=> (and (=> (= vabs_0_f_f i) (= a_select a_select_0)) (assign_100_18_5_abs0 i a_select u c tmp size i) (assign_100_18_5_abs0 vabs_0_f_f a_select_0 u c tmp size i)) (assert_114_19_5_abs0 vabs_0_f_f a_select_0 a_select c tmp size i))))
(assert (forall ((i Int) (size Int) (tmp Int) (c Int) (u Int) (a_select Int)) (=> (assert_114_19_5_abs0 i a_select u c tmp size i) (= a_select 1))))
(assert (forall ((i Int) (size Int) (tmp Int) (c Int) (u Int) (vabs_0_f_f Int) (a_select Int)) (=> (assert_114_19_5_abs0 vabs_0_f_f a_select u c tmp size i) (assign_123_20_5_abs0 vabs_0_f_f a_select u c tmp size i))))
(assert (forall ((i Int) (size Int) (tmp Int) (c Int) (u Int) (vabs_0_f_f Int) (a_select Int)) (=> (assign_123_20_5_abs0 vabs_0_f_f a_select u c tmp size i) (while_126_17_1_abs0 vabs_0_f_f a_select u c tmp size (+ i 2)))))
(check-sat)